1 of 1 MIP starts provided solutions.
MIP start 'm1' defined initial solution with objective 1292.0848.
Tried aggregator 1 time.
MIP Presolve eliminated 12 rows and 7 columns.
Reduced MIP has 3388 rows, 1952 columns, and 39714 nonzeros.
Reduced MIP has 1600 binaries, 0 generals, 0 SOSs, and 0 indicators.
Presolve time = 0.02 sec. (11.78 ticks)
Probing time = 0.00 sec. (3.55 ticks)
Tried aggregator 1 time.
Reduced MIP has 3388 rows, 1952 columns, and 39714 nonzeros.
Reduced MIP has 1600 binaries, 0 generals, 0 SOSs, and 0 indicators.
Presolve time = 0.02 sec. (11.79 ticks)
Probing time = 0.00 sec. (3.56 ticks)
Clique table members: 111.
MIP emphasis: balance optimality and feasibility.
MIP search method: dynamic search.
Parallel mode: none, using 1 thread.
Root relaxation solution time = 0.02 sec. (14.39 ticks)

        Nodes                                         Cuts/
   Node  Left     Objective  IInf  Best Integer    Best Bound    ItCnt     Gap

*     0+    0                         1292.0848     1353.1421      711    4.73%
      0     0     1343.3036    76     1292.0848     1343.3036      711    3.96%
      0     0     1310.8423    45     1292.0848     Cuts: 164      778    1.45%
      0     0     1304.7865    38     1292.0848      Cuts: 73      831    0.98%
      0     0     1303.0226    56     1292.0848      Cuts: 35      869    0.85%
      0     0     1299.7770    50     1292.0848      Cuts: 37      903    0.60%
      0     0     1298.6081    53     1292.0848      Cuts: 29      926    0.50%

Repeating presolve.
Tried aggregator 2 times.
MIP Presolve eliminated 814 rows and 791 columns.
MIP Presolve modified 1078 coefficients.
Aggregator did 1 substitutions.
Reduced MIP has 2573 rows, 1160 columns, and 22282 nonzeros.
Reduced MIP has 839 binaries, 0 generals, 0 SOSs, and 0 indicators.
Presolve time = 0.03 sec. (22.51 ticks)
Probing fixed 0 vars, tightened 3 bounds.
Probing time = 0.01 sec. (8.38 ticks)
Cover probing fixed 0 vars, tightened 53 bounds.
Tried aggregator 1 time.
MIP Presolve eliminated 4 rows and 1 columns.
MIP Presolve modified 2868 coefficients.
Reduced MIP has 2569 rows, 1159 columns, and 21854 nonzeros.
Reduced MIP has 838 binaries, 0 generals, 0 SOSs, and 0 indicators.
Presolve time = 0.03 sec. (18.65 ticks)
Represolve time = 0.09 sec. (54.03 ticks)
Probing time = 0.00 sec. (2.90 ticks)
Clique table members: 786.
MIP emphasis: balance optimality and feasibility.
MIP search method: dynamic search.
Parallel mode: none, using 1 thread.
Root relaxation solution time = 0.03 sec. (16.03 ticks)

        Nodes                                         Cuts/
   Node  Left     Objective  IInf  Best Integer    Best Bound    ItCnt     Gap

*     0+    0                         1292.0848     1298.6081     1619    0.50%
      0     0     1298.6001    46     1292.0848     1298.6001     1619    0.50%
      0     2     1298.6001    46     1292.0848     1298.4195     1619    0.49%
Elapsed time = 0.50 sec. (325.71 ticks, tree = 0.00 MB, solutions = 1)
    158    67     1296.9044    38     1292.0848     1296.8738     2679    0.37%
    323   121        cutoff           1292.0848     1295.7715     3868    0.29%
    515   168     1293.2445    30     1292.0848     1294.8202     5334    0.21%
    716   197     1292.8636    38     1292.0848     1294.1309     6813    0.16%
    927   153     1293.1522    23     1292.0848     1293.1819     8125    0.08%
   1130    55     1292.3691    31     1292.0848     1292.4870     8996    0.03%

Implied bound cuts applied:  105
Flow cuts applied:  17
Mixed integer rounding cuts applied:  33
Gomory fractional cuts applied:  32

Root node processing (before b&c):
  Real time             =    0.50 sec. (325.65 ticks)
Sequential b&c:
  Real time             =    1.77 sec. (1504.71 ticks)
                          ------------
Total (root+branch&cut) =    2.27 sec. (1830.36 ticks)
